/* Objective function */
min: - 0.0054fpdi - 0.0054fpdo + 0.05apdi + 0.05apdo + 0.0002pi + 0.0002po - 0.5fsi - 0.5fso;

apdi = 0.0 hi + 0.0 li + 9.8942 ri + -0.01071 ci + -1.4309 si + 0.0 ti + 0.12469 fTempIi + 0.00701 ami + -111.935;
asi = 0.0 hi + 0.0 li + -0.0 ri + -0.0 ci + 0.0 si + 0.0 ti + -0.0 fTempIi + 8e-05 ami + -0.0;
aTempOi = 0.0 hi + -0.0 li + 0.28323 ri + -0.04917 ci + -0.04438 si + 0.0 ti + 0.78352 fTempIi + -0.00025 ami + 6.79076;
fpdi = 0.0 hi + 0.0 li + 42.52301 ri + -102.82845 ci + -0.07513 si + 0.0 ti + -2.17716 fTempIi + 0.00043 ami + 1168.94977;
fsi = 0.0 hi + 0.0 li + -7e-05 ri + -0.16023 ci + 1e-05 si + 0.0 ti + 0.0002 fTempIi + -0.0 ami + 3.53053;
fTempOi = 0.0 hi + -0.0 li + -0.28217 ri + 0.04923 ci + 0.0441 si + 0.0 ti + 0.22854 fTempIi + -0.00023 ami + 10.06118;
pi = 0.0 hi + 0.0 li + 340.58125 ri + 2.75 ci + -34.468 si + 0.0 ti + 0.0 fTempIi + 0.0 ami + 1669.2975;

apdo = 0.0 ho + 0.0 lo + 10.01592 ro + 0.00774 co + -1.42969 so + 0.0 to + 0.08582 fTempIo + 0.00721 amo + -114.55602;
aso = 0.0 ho + 0.0 lo + -0.0 ro + -0.0 co + 0.0 so + 0.0 to + -0.0 fTempIo + 8e-05 amo + -0.0;
aTempOo = 0.0 ho + -0.0 lo + -0.30312 ro + 0.0538 co + 0.0474 so + 0.0 to + 0.76589 fTempIo + 0.00026 amo + -0.47535;
fpdo = 0.0 ho + 0.0 lo + 41.45848 ro + -102.28964 co + 0.07893 so + 0.0 to + -2.16622 fTempIo + -0.00045 amo + 1160.84956;
fso = 0.0 ho + 0.0 lo + 0.0001 ro + -0.16023 co + -1e-05 so + 0.0 to + 0.00018 fTempIo + 0.0 amo + 3.52894;
fTempOo = 0.0 ho + -0.0 lo + 0.2992 ro + -0.05274 co + -0.04669 so + 0.0 to + 0.23669 fTempIo + 0.00025 amo + 12.58979;
po = 0.0 ho + 0.0 lo + 340.58125 ro + 2.75 co + -34.468 so + 0.0 to + 0.0 fTempIo + 0.0 amo + 1669.2975;

/* Variable bounds */
aTempOi > 18.6;
1 =r6i + r8i + r10i + r12i + r14i;
ri =6r6i + 8r8i + 10r10i + 12r12i + 14r14i;
1 =s30i + s40i + s50i + s60i;
si =30s30i + 40s40i + 50s50i + 60s60i;
ti = 3;
apdi > 100;
apdi < 300;
asi > 0;
asi < 3;
aTempOi > 5;
aTempOi < 25;
fpdi > 100;
fpdi < 300;
fsi > 0;
fsi < 1.25;
fTempOi > 5;
fTempOi < 25;
pi > 0;
ri > 6;
ri < 14;
ci > 1;
ci < 14;
si > 25;
si < 60;
ti > 1;
ti < 3;
fTempIi > 5;
fTempIi < 25;

/* aTempOo < 11.4; */
1 =r6o + r8o + r10o + r12o + r14o;
ro =6r6o + 8r8o + 10r10o + 12r12o + 14r14o;
1 =s30o + s40o + s50o + s60o;
so =30s30o + 40s40o + 50s50o + 60s60o;
to = 3;
apdo > 100;
apdo < 300;
aso > 0;
aso < 3;
aTempOo > 5;
aTempOo < 25;
fpdo > 100;
fpdo < 300;
fso > 0;
fso < 1.25;
fTempOo > 5;
fTempOo < 25;
po > 0;
ro > 6;
ro < 14;
co > 1;
co < 14;
so > 25;
so < 60;
to > 1;
to < 3;
fTempIo > 5;
fTempIo < 25;
int hi,li,si,ti,ci,ri,ami;
int ho,lo,so,to,co,ro,amo;
bin s25i,s30i,s40i,s50i,s60i,r6i,r8i,r10i,r12i,r14i;
bin s25o,s30o,s40o,s50o,s60o,r6o,r8o,r10o,r12o,r14o;
